NAME 
ROWS
 N  OBJ
 L  R0      
 L  R1      
 L  R2      
 L  R3      
 L  R4      
 L  R5      
 L  R6      
 L  R7      
 L  R8      
 L  R9      
 L  R10     
 L  R11     
 L  R12     
 L  R13     
 L  R14     
 L  R15     
 L  R16     
 L  R17     
 L  R18     
 L  R19     
 L  R20     
 L  R21     
 L  R22     
 L  R23     
 L  R24     
 L  R25     
 L  R26     
 L  R27     
 L  R28     
 L  R29     
 L  R30     
 L  R31     
 L  R32     
 L  R33     
 L  R34     
 L  R35     
 L  R36     
 L  R37     
 L  R38     
 L  R39     
 L  R40     
 L  R41     
 L  R42     
 L  R43     
 L  R44     
 L  R45     
COLUMNS
    MARKER    'MARKER'                 'INTORG'
    x[0]      R0        1
    x[0]      R1        1
    x[1]      R0        1
    x[1]      R2        1
    x[2]      R0        1
    x[2]      R3        1
    x[3]      R0        1
    x[3]      R4        1
    x[4]      R0        1
    x[4]      R5        1
    x[5]      R0        1
    x[5]      R6        1
    x[6]      R0        1
    x[6]      R7        1
    x[7]      R0        1
    x[7]      R8        1
    x[8]      R0        1
    x[8]      R9        1
    x[9]      R0        1
    x[9]      R10       1
    x[10]     R0        1
    x[10]     R11       1
    x[11]     R0        1
    x[11]     R12       1
    x[12]     R0        1
    x[12]     R13       1
    x[13]     R0        1
    x[13]     R14       1
    x[14]     R0        1
    x[14]     R15       1
    x[15]     R0        1
    x[15]     R16       1
    x[16]     R0        1
    x[16]     R17       1
    x[17]     R0        1
    x[17]     R18       1
    x[18]     R0        1
    x[18]     R19       1
    x[19]     R0        1
    x[19]     R20       1
    x[20]     R0        1
    x[20]     R21       1
    x[21]     R0        1
    x[21]     R22       1
    x[22]     R0        1
    x[22]     R23       1
    x[23]     R0        1
    x[23]     R24       1
    x[24]     R0        1
    x[24]     R25       1
    x[25]     R0        1
    x[25]     R26       1
    x[26]     R0        1
    x[26]     R27       1
    x[27]     R0        1
    x[27]     R28       1
    x[28]     R0        1
    x[28]     R29       1
    x[29]     R0        1
    x[29]     R30       1
    x[30]     R0        1
    x[30]     R31       1
    x[31]     R0        1
    x[31]     R32       1
    x[32]     R0        1
    x[32]     R33       1
    x[33]     R0        1
    x[33]     R34       1
    x[34]     R0        1
    x[34]     R35       1
    x[35]     R0        1
    x[35]     R36       1
    x[36]     R0        1
    x[36]     R37       1
    x[37]     R0        1
    x[37]     R38       1
    x[38]     R0        1
    x[38]     R39       1
    y[0]      OBJ       1
    y[0]      R1        1
    y[0]      R2        1
    y[0]      R3        1
    y[0]      R4        1
    y[0]      R5        1
    y[0]      R6        1
    y[0]      R7        1
    y[0]      R8        1
    y[0]      R40       1
    y[1]      OBJ       1
    y[1]      R1        1
    y[1]      R9        1
    y[1]      R10       1
    y[1]      R11       1
    y[1]      R12       1
    y[1]      R13       1
    y[1]      R14       1
    y[1]      R15       1
    y[1]      R41       1
    y[2]      OBJ       1
    y[2]      R9        1
    y[2]      R16       1
    y[2]      R17       1
    y[2]      R18       1
    y[2]      R19       1
    y[2]      R20       1
    y[2]      R40       1
    y[2]      R42       1
    y[2]      R43       1
    y[3]      OBJ       1
    y[3]      R2        1
    y[3]      R10       1
    y[3]      R16       1
    y[3]      R21       1
    y[3]      R22       1
    y[3]      R23       1
    y[3]      R24       1
    y[3]      R25       1
    y[3]      R44       1
    y[4]      OBJ       1
    y[4]      R3        1
    y[4]      R11       1
    y[4]      R17       1
    y[4]      R21       1
    y[4]      R26       1
    y[4]      R27       1
    y[4]      R28       1
    y[4]      R29       1
    y[4]      R30       1
    y[5]      OBJ       1
    y[5]      R4        1
    y[5]      R12       1
    y[5]      R18       1
    y[5]      R22       1
    y[5]      R26       1
    y[5]      R31       1
    y[5]      R32       1
    y[5]      R33       1
    y[5]      R45       1
    y[6]      OBJ       1
    y[6]      R5        1
    y[6]      R23       1
    y[6]      R27       1
    y[6]      R31       1
    y[6]      R34       1
    y[6]      R35       1
    y[6]      R36       1
    y[6]      R41       1
    y[6]      R42       1
    y[7]      OBJ       1
    y[7]      R6        1
    y[7]      R13       1
    y[7]      R28       1
    y[7]      R34       1
    y[7]      R37       1
    y[7]      R38       1
    y[7]      R43       1
    y[7]      R44       1
    y[7]      R45       1
    y[8]      OBJ       1
    y[8]      R7        1
    y[8]      R14       1
    y[8]      R19       1
    y[8]      R24       1
    y[8]      R29       1
    y[8]      R32       1
    y[8]      R35       1
    y[8]      R37       1
    y[8]      R39       1
    y[9]      OBJ       1
    y[9]      R8        1
    y[9]      R15       1
    y[9]      R20       1
    y[9]      R25       1
    y[9]      R30       1
    y[9]      R33       1
    y[9]      R36       1
    y[9]      R38       1
    y[9]      R39       1
    MARKER    'MARKER'                 'INTEND'
RHS
    RHS1      R0        11
    RHS1      R1        2
    RHS1      R2        2
    RHS1      R3        2
    RHS1      R4        2
    RHS1      R5        2
    RHS1      R6        2
    RHS1      R7        2
    RHS1      R8        2
    RHS1      R9        2
    RHS1      R10       2
    RHS1      R11       2
    RHS1      R12       2
    RHS1      R13       2
    RHS1      R14       2
    RHS1      R15       2
    RHS1      R16       2
    RHS1      R17       2
    RHS1      R18       2
    RHS1      R19       2
    RHS1      R20       2
    RHS1      R21       2
    RHS1      R22       2
    RHS1      R23       2
    RHS1      R24       2
    RHS1      R25       2
    RHS1      R26       2
    RHS1      R27       2
    RHS1      R28       2
    RHS1      R29       2
    RHS1      R30       2
    RHS1      R31       2
    RHS1      R32       2
    RHS1      R33       2
    RHS1      R34       2
    RHS1      R35       2
    RHS1      R36       2
    RHS1      R37       2
    RHS1      R38       2
    RHS1      R39       2
    RHS1      R40       1
    RHS1      R41       1
    RHS1      R42       1
    RHS1      R43       1
    RHS1      R44       1
    RHS1      R45       1
BOUNDS
 BV BND1      x[0]    
 BV BND1      x[1]    
 BV BND1      x[2]    
 BV BND1      x[3]    
 BV BND1      x[4]    
 BV BND1      x[5]    
 BV BND1      x[6]    
 BV BND1      x[7]    
 BV BND1      x[8]    
 BV BND1      x[9]    
 BV BND1      x[10]   
 BV BND1      x[11]   
 BV BND1      x[12]   
 BV BND1      x[13]   
 BV BND1      x[14]   
 BV BND1      x[15]   
 BV BND1      x[16]   
 BV BND1      x[17]   
 BV BND1      x[18]   
 BV BND1      x[19]   
 BV BND1      x[20]   
 BV BND1      x[21]   
 BV BND1      x[22]   
 BV BND1      x[23]   
 BV BND1      x[24]   
 BV BND1      x[25]   
 BV BND1      x[26]   
 BV BND1      x[27]   
 BV BND1      x[28]   
 BV BND1      x[29]   
 BV BND1      x[30]   
 BV BND1      x[31]   
 BV BND1      x[32]   
 BV BND1      x[33]   
 BV BND1      x[34]   
 BV BND1      x[35]   
 BV BND1      x[36]   
 BV BND1      x[37]   
 BV BND1      x[38]   
 BV BND1      y[0]    
 BV BND1      y[1]    
 BV BND1      y[2]    
 BV BND1      y[3]    
 BV BND1      y[4]    
 BV BND1      y[5]    
 BV BND1      y[6]    
 BV BND1      y[7]    
 BV BND1      y[8]    
 BV BND1      y[9]    
ENDATA
